&CONTROL
 calculation = 'bands'
  pseudo_dir = '../../../pseudo/'
/
&SYSTEM
       ibrav = 0
         nat = 1
        ntyp = 1
     ecutwfc = 35.0
     ecutrho = 280.0
        nbnd = 15
/
&ELECTRONS
/
CELL_PARAMETERS angstrom
   0.000000000   2.016009830   2.016009830
   2.016009830   0.000000000   2.016009830
   2.016009830   2.016009830   0.000000000
ATOMIC_SPECIES
 Al 26.981539 Al.pbe-n-rrkjus_psl.0.1.UPF
ATOMIC_POSITIONS crystal
 Al 0.000000 0.000000 0.000000
K_POINTS crystal
63
 0.000000 0.000000 0.000000 1.0
 0.035714 0.000000 0.035714 1.0
 0.071429 0.000000 0.071429 1.0
 0.107143 0.000000 0.107143 1.0
 0.142857 0.000000 0.142857 1.0
 0.178571 0.000000 0.178571 1.0
 0.214286 0.000000 0.214286 1.0
 0.250000 0.000000 0.250000 1.0
 0.285714 0.000000 0.285714 1.0
 0.321429 0.000000 0.321429 1.0
 0.357143 0.000000 0.357143 1.0
 0.392857 0.000000 0.392857 1.0
 0.428571 0.000000 0.428571 1.0
 0.464286 0.000000 0.464286 1.0
 0.500000 0.000000 0.500000 1.0
 0.531250 0.062500 0.531250 1.0
 0.562500 0.125000 0.562500 1.0
 0.593750 0.187500 0.593750 1.0
 0.625000 0.250000 0.625000 1.0
 0.375000 0.375000 0.750000 1.0
 0.350000 0.350000 0.700000 1.0
 0.325000 0.325000 0.650000 1.0
 0.300000 0.300000 0.600000 1.0
 0.275000 0.275000 0.550000 1.0
 0.250000 0.250000 0.500000 1.0
 0.225000 0.225000 0.450000 1.0
 0.200000 0.200000 0.400000 1.0
 0.175000 0.175000 0.350000 1.0
 0.150000 0.150000 0.300000 1.0
 0.125000 0.125000 0.250000 1.0
 0.100000 0.100000 0.200000 1.0
 0.075000 0.075000 0.150000 1.0
 0.050000 0.050000 0.100000 1.0
 0.025000 0.025000 0.050000 1.0
 0.000000 0.000000 0.000000 1.0
 0.041667 0.041667 0.041667 1.0
 0.083333 0.083333 0.083333 1.0
 0.125000 0.125000 0.125000 1.0
 0.166667 0.166667 0.166667 1.0
 0.208333 0.208333 0.208333 1.0
 0.250000 0.250000 0.250000 1.0
 0.291667 0.291667 0.291667 1.0
 0.333333 0.333333 0.333333 1.0
 0.375000 0.375000 0.375000 1.0
 0.416667 0.416667 0.416667 1.0
 0.458333 0.458333 0.458333 1.0
 0.500000 0.500000 0.500000 1.0
 0.500000 0.475000 0.525000 1.0
 0.500000 0.450000 0.550000 1.0
 0.500000 0.425000 0.575000 1.0
 0.500000 0.400000 0.600000 1.0
 0.500000 0.375000 0.625000 1.0
 0.500000 0.350000 0.650000 1.0
 0.500000 0.325000 0.675000 1.0
 0.500000 0.300000 0.700000 1.0
 0.500000 0.275000 0.725000 1.0
 0.500000 0.250000 0.750000 1.0
 0.500000 0.208333 0.708333 1.0
 0.500000 0.166667 0.666667 1.0
 0.500000 0.125000 0.625000 1.0
 0.500000 0.083333 0.583333 1.0
 0.500000 0.041667 0.541667 1.0
 0.500000 0.000000 0.500000 1.0
