&CONTROL
 calculation = 'nscf'
pseudo_dir = "./"
/
&SYSTEM
       ibrav = 0
         nat = 1
        ntyp = 1
     ecutwfc = 65.000000
     ecutrho = 260.000000
 occupations = 'tetrahedra_opt'
        nbnd = 10
        la2f = .true.
/
&ELECTRONS
/
CELL_PARAMETERS angstrom
   0.000000000   2.012277204   2.012277204
   2.012277204   0.000000000   2.012277204
   2.012277204   2.012277204   0.000000000
ATOMIC_SPECIES
 Al 26.981539 Al.pbe-n-nc.UPF
ATOMIC_POSITIONS crystal
 Al 0.000000 0.000000 0.000000
K_POINTS automatic
 16 16 16 0 0 0
