&CONTROL
 calculation = 'nscf'
pseudo_dir = "../../../pseudo/"
/
&SYSTEM
       ibrav = 0
         nat = 1
        ntyp = 1
     ecutwfc = 35.0
     ecutrho = 280.0
 occupations = 'tetrahedra_opt'
        nbnd = 10
        la2f = .true.
/
&ELECTRONS
/
CELL_PARAMETERS angstrom
   0.000000000   2.016009830   2.016009830
   2.016009830   0.000000000   2.016009830
   2.016009830   2.016009830   0.000000000
ATOMIC_SPECIES
 Al 26.981539 Al.pbe-n-rrkjus_psl.0.1.UPF
ATOMIC_POSITIONS crystal
 Al 0.000000 0.000000 0.000000
K_POINTS automatic
 16 16 16 0 0 0
