&CONTROL
calculation = ""
/
&KEL
     nci = 5
  laddxc = 0
     lsf = 1
ecutfock = 70.0
     nq1 = 4
     nq2 = 4
     nq3 = 4
/
&SCDFT
             temp = -1.0
             fbee = 1
             lbee = 10
xic = -1.0
              nmf = 10
               nx = 100
               ne = 50
             emin = 1.0e-7
             emax = 0.7
 electron_maxstep = 100
         conv_thr = 1.0e-15
spin_fluc =.true.
/
