&CONTROL
 calculation = "kel"
/
&KEL
     nci = 5
  laddxc = 0
     lsf = 1
 ecutwfc = 60.0
     nq1 = 4
     nq2 = 4
     nq3 = 3
/
&SCDFT
             temp = -0.1
             fbee = 1
             lbee = 15
              xic = -1.0
              nmf = 10
               nx = 100
               ne = 50
             emin = 1.0e-7
             emax = 5.0
 electron_maxstep = 100
         conv_thr = 1.0e-15
         spin_fluc =.true.
/
