&CONTROL
 calculation = 'bands'
pseudo_dir = "./"
/
&SYSTEM
       ibrav = 2
         nat = 1
        ntyp = 1
     ecutwfc = 35.0
!     ecutrho = 280.0
        nbnd = 28
	celldm(1) = 9.5193932646
/
&ELECTRONS
/
ATOMIC_SPECIES
 Pb 207.2 Pb_ONCV_PBE-1.2.upf
ATOMIC_POSITIONS crystal
 Pb 0.000000 0.000000 0.000000
K_POINTS crystal
432
   0.000000000000000    0.000000000000000    0.000000000000000   1.0
   0.000000000000000    0.000000000000000    0.166666666666666   1.0
   0.000000000000000    0.000000000000000    0.333333333333333   1.0
   0.000000000000000    0.000000000000000   -0.500000000000000   1.0
   0.000000000000000    0.000000000000000   -0.333333333333334   1.0
   0.000000000000000    0.000000000000000   -0.166666666666667   1.0
   0.000000000000000    0.166666666666666    0.000000000000000   1.0
   0.000000000000000    0.166666666666666    0.166666666666666   1.0
   0.000000000000000    0.166666666666666    0.333333333333333   1.0
   0.000000000000000    0.166666666666666   -0.500000000000000   1.0
   0.000000000000000    0.166666666666666   -0.333333333333334   1.0
   0.000000000000000    0.166666666666666   -0.166666666666667   1.0
   0.000000000000000    0.333333333333333    0.000000000000000   1.0
   0.000000000000000    0.333333333333333    0.166666666666666   1.0
   0.000000000000000    0.333333333333333    0.333333333333333   1.0
   0.000000000000000    0.333333333333333   -0.500000000000000   1.0
   0.000000000000000    0.333333333333333   -0.333333333333334   1.0
   0.000000000000000    0.333333333333333   -0.166666666666667   1.0
   0.000000000000000   -0.500000000000000    0.000000000000000   1.0
   0.000000000000000   -0.500000000000000    0.166666666666666   1.0
   0.000000000000000   -0.500000000000000    0.333333333333333   1.0
   0.000000000000000   -0.500000000000000   -0.500000000000000   1.0
   0.000000000000000   -0.500000000000000   -0.333333333333334   1.0
   0.000000000000000   -0.500000000000000   -0.166666666666667   1.0
   0.000000000000000   -0.333333333333334    0.000000000000000   1.0
   0.000000000000000   -0.333333333333334    0.166666666666666   1.0
   0.000000000000000   -0.333333333333334    0.333333333333333   1.0
   0.000000000000000   -0.333333333333334   -0.500000000000000   1.0
   0.000000000000000   -0.333333333333334   -0.333333333333334   1.0
   0.000000000000000   -0.333333333333334   -0.166666666666667   1.0
   0.000000000000000   -0.166666666666667    0.000000000000000   1.0
   0.000000000000000   -0.166666666666667    0.166666666666666   1.0
   0.000000000000000   -0.166666666666667    0.333333333333333   1.0
   0.000000000000000   -0.166666666666667   -0.500000000000000   1.0
   0.000000000000000   -0.166666666666667   -0.333333333333334   1.0
   0.000000000000000   -0.166666666666667   -0.166666666666667   1.0
   0.166666666666666    0.000000000000000    0.000000000000000   1.0
   0.166666666666666    0.000000000000000    0.166666666666666   1.0
   0.166666666666666    0.000000000000000    0.333333333333333   1.0
   0.166666666666666    0.000000000000000   -0.500000000000000   1.0
   0.166666666666666    0.000000000000000   -0.333333333333334   1.0
   0.166666666666666    0.000000000000000   -0.166666666666667   1.0
   0.166666666666666    0.166666666666666    0.000000000000000   1.0
   0.166666666666666    0.166666666666666    0.166666666666666   1.0
   0.166666666666666    0.166666666666666    0.333333333333333   1.0
   0.166666666666666    0.166666666666666   -0.500000000000000   1.0
   0.166666666666666    0.166666666666666   -0.333333333333334   1.0
   0.166666666666666    0.166666666666666   -0.166666666666667   1.0
   0.166666666666666    0.333333333333333    0.000000000000000   1.0
   0.166666666666666    0.333333333333333    0.166666666666666   1.0
   0.166666666666666    0.333333333333333    0.333333333333333   1.0
   0.166666666666666    0.333333333333333   -0.500000000000000   1.0
   0.166666666666666    0.333333333333333   -0.333333333333334   1.0
   0.166666666666666    0.333333333333333   -0.166666666666667   1.0
   0.166666666666666   -0.500000000000000    0.000000000000000   1.0
   0.166666666666666   -0.500000000000000    0.166666666666666   1.0
   0.166666666666666   -0.500000000000000    0.333333333333333   1.0
   0.166666666666666   -0.500000000000000   -0.500000000000000   1.0
   0.166666666666666   -0.500000000000000   -0.333333333333334   1.0
   0.166666666666666   -0.500000000000000   -0.166666666666667   1.0
   0.166666666666666   -0.333333333333334    0.000000000000000   1.0
   0.166666666666666   -0.333333333333334    0.166666666666666   1.0
   0.166666666666666   -0.333333333333334    0.333333333333333   1.0
   0.166666666666666   -0.333333333333334   -0.500000000000000   1.0
   0.166666666666666   -0.333333333333334   -0.333333333333334   1.0
   0.166666666666666   -0.333333333333334   -0.166666666666667   1.0
   0.166666666666666   -0.166666666666667    0.000000000000000   1.0
   0.166666666666666   -0.166666666666667    0.166666666666666   1.0
   0.166666666666666   -0.166666666666667    0.333333333333333   1.0
   0.166666666666666   -0.166666666666667   -0.500000000000000   1.0
   0.166666666666666   -0.166666666666667   -0.333333333333334   1.0
   0.166666666666666   -0.166666666666667   -0.166666666666667   1.0
   0.333333333333333    0.000000000000000    0.000000000000000   1.0
   0.333333333333333    0.000000000000000    0.166666666666666   1.0
   0.333333333333333    0.000000000000000    0.333333333333333   1.0
   0.333333333333333    0.000000000000000   -0.500000000000000   1.0
   0.333333333333333    0.000000000000000   -0.333333333333334   1.0
   0.333333333333333    0.000000000000000   -0.166666666666667   1.0
   0.333333333333333    0.166666666666666    0.000000000000000   1.0
   0.333333333333333    0.166666666666666    0.166666666666666   1.0
   0.333333333333333    0.166666666666666    0.333333333333333   1.0
   0.333333333333333    0.166666666666666   -0.500000000000000   1.0
   0.333333333333333    0.166666666666666   -0.333333333333334   1.0
   0.333333333333333    0.166666666666666   -0.166666666666667   1.0
   0.333333333333333    0.333333333333333    0.000000000000000   1.0
   0.333333333333333    0.333333333333333    0.166666666666666   1.0
   0.333333333333333    0.333333333333333    0.333333333333333   1.0
   0.333333333333333    0.333333333333333   -0.500000000000000   1.0
   0.333333333333333    0.333333333333333   -0.333333333333334   1.0
   0.333333333333333    0.333333333333333   -0.166666666666667   1.0
   0.333333333333333   -0.500000000000000    0.000000000000000   1.0
   0.333333333333333   -0.500000000000000    0.166666666666666   1.0
   0.333333333333333   -0.500000000000000    0.333333333333333   1.0
   0.333333333333333   -0.500000000000000   -0.500000000000000   1.0
   0.333333333333333   -0.500000000000000   -0.333333333333334   1.0
   0.333333333333333   -0.500000000000000   -0.166666666666667   1.0
   0.333333333333333   -0.333333333333334    0.000000000000000   1.0
   0.333333333333333   -0.333333333333334    0.166666666666666   1.0
   0.333333333333333   -0.333333333333334    0.333333333333333   1.0
   0.333333333333333   -0.333333333333334   -0.500000000000000   1.0
   0.333333333333333   -0.333333333333334   -0.333333333333334   1.0
   0.333333333333333   -0.333333333333334   -0.166666666666667   1.0
   0.333333333333333   -0.166666666666667    0.000000000000000   1.0
   0.333333333333333   -0.166666666666667    0.166666666666666   1.0
   0.333333333333333   -0.166666666666667    0.333333333333333   1.0
   0.333333333333333   -0.166666666666667   -0.500000000000000   1.0
   0.333333333333333   -0.166666666666667   -0.333333333333334   1.0
   0.333333333333333   -0.166666666666667   -0.166666666666667   1.0
  -0.500000000000000    0.000000000000000    0.000000000000000   1.0
  -0.500000000000000    0.000000000000000    0.166666666666666   1.0
  -0.500000000000000    0.000000000000000    0.333333333333333   1.0
  -0.500000000000000    0.000000000000000   -0.500000000000000   1.0
  -0.500000000000000    0.000000000000000   -0.333333333333334   1.0
  -0.500000000000000    0.000000000000000   -0.166666666666667   1.0
  -0.500000000000000    0.166666666666666    0.000000000000000   1.0
  -0.500000000000000    0.166666666666666    0.166666666666666   1.0
  -0.500000000000000    0.166666666666666    0.333333333333333   1.0
  -0.500000000000000    0.166666666666666   -0.500000000000000   1.0
  -0.500000000000000    0.166666666666666   -0.333333333333334   1.0
  -0.500000000000000    0.166666666666666   -0.166666666666667   1.0
  -0.500000000000000    0.333333333333333    0.000000000000000   1.0
  -0.500000000000000    0.333333333333333    0.166666666666666   1.0
  -0.500000000000000    0.333333333333333    0.333333333333333   1.0
  -0.500000000000000    0.333333333333333   -0.500000000000000   1.0
  -0.500000000000000    0.333333333333333   -0.333333333333334   1.0
  -0.500000000000000    0.333333333333333   -0.166666666666667   1.0
  -0.500000000000000   -0.500000000000000    0.000000000000000   1.0
  -0.500000000000000   -0.500000000000000    0.166666666666666   1.0
  -0.500000000000000   -0.500000000000000    0.333333333333333   1.0
  -0.500000000000000   -0.500000000000000   -0.500000000000000   1.0
  -0.500000000000000   -0.500000000000000   -0.333333333333334   1.0
  -0.500000000000000   -0.500000000000000   -0.166666666666667   1.0
  -0.500000000000000   -0.333333333333334    0.000000000000000   1.0
  -0.500000000000000   -0.333333333333334    0.166666666666666   1.0
  -0.500000000000000   -0.333333333333334    0.333333333333333   1.0
  -0.500000000000000   -0.333333333333334   -0.500000000000000   1.0
  -0.500000000000000   -0.333333333333334   -0.333333333333334   1.0
  -0.500000000000000   -0.333333333333334   -0.166666666666667   1.0
  -0.500000000000000   -0.166666666666667    0.000000000000000   1.0
  -0.500000000000000   -0.166666666666667    0.166666666666666   1.0
  -0.500000000000000   -0.166666666666667    0.333333333333333   1.0
  -0.500000000000000   -0.166666666666667   -0.500000000000000   1.0
  -0.500000000000000   -0.166666666666667   -0.333333333333334   1.0
  -0.500000000000000   -0.166666666666667   -0.166666666666667   1.0
  -0.333333333333334    0.000000000000000    0.000000000000000   1.0
  -0.333333333333334    0.000000000000000    0.166666666666666   1.0
  -0.333333333333334    0.000000000000000    0.333333333333333   1.0
  -0.333333333333334    0.000000000000000   -0.500000000000000   1.0
  -0.333333333333334    0.000000000000000   -0.333333333333334   1.0
  -0.333333333333334    0.000000000000000   -0.166666666666667   1.0
  -0.333333333333334    0.166666666666666    0.000000000000000   1.0
  -0.333333333333334    0.166666666666666    0.166666666666666   1.0
  -0.333333333333334    0.166666666666666    0.333333333333333   1.0
  -0.333333333333334    0.166666666666666   -0.500000000000000   1.0
  -0.333333333333334    0.166666666666666   -0.333333333333334   1.0
  -0.333333333333334    0.166666666666666   -0.166666666666667   1.0
  -0.333333333333334    0.333333333333333    0.000000000000000   1.0
  -0.333333333333334    0.333333333333333    0.166666666666666   1.0
  -0.333333333333334    0.333333333333333    0.333333333333333   1.0
  -0.333333333333334    0.333333333333333   -0.500000000000000   1.0
  -0.333333333333334    0.333333333333333   -0.333333333333334   1.0
  -0.333333333333334    0.333333333333333   -0.166666666666667   1.0
  -0.333333333333334   -0.500000000000000    0.000000000000000   1.0
  -0.333333333333334   -0.500000000000000    0.166666666666666   1.0
  -0.333333333333334   -0.500000000000000    0.333333333333333   1.0
  -0.333333333333334   -0.500000000000000   -0.500000000000000   1.0
  -0.333333333333334   -0.500000000000000   -0.333333333333334   1.0
  -0.333333333333334   -0.500000000000000   -0.166666666666667   1.0
  -0.333333333333334   -0.333333333333334    0.000000000000000   1.0
  -0.333333333333334   -0.333333333333334    0.166666666666666   1.0
  -0.333333333333334   -0.333333333333334    0.333333333333333   1.0
  -0.333333333333334   -0.333333333333334   -0.500000000000000   1.0
  -0.333333333333334   -0.333333333333334   -0.333333333333334   1.0
  -0.333333333333334   -0.333333333333334   -0.166666666666667   1.0
  -0.333333333333334   -0.166666666666667    0.000000000000000   1.0
  -0.333333333333334   -0.166666666666667    0.166666666666666   1.0
  -0.333333333333334   -0.166666666666667    0.333333333333333   1.0
  -0.333333333333334   -0.166666666666667   -0.500000000000000   1.0
  -0.333333333333334   -0.166666666666667   -0.333333333333334   1.0
  -0.333333333333334   -0.166666666666667   -0.166666666666667   1.0
  -0.166666666666667    0.000000000000000    0.000000000000000   1.0
  -0.166666666666667    0.000000000000000    0.166666666666666   1.0
  -0.166666666666667    0.000000000000000    0.333333333333333   1.0
  -0.166666666666667    0.000000000000000   -0.500000000000000   1.0
  -0.166666666666667    0.000000000000000   -0.333333333333334   1.0
  -0.166666666666667    0.000000000000000   -0.166666666666667   1.0
  -0.166666666666667    0.166666666666666    0.000000000000000   1.0
  -0.166666666666667    0.166666666666666    0.166666666666666   1.0
  -0.166666666666667    0.166666666666666    0.333333333333333   1.0
  -0.166666666666667    0.166666666666666   -0.500000000000000   1.0
  -0.166666666666667    0.166666666666666   -0.333333333333334   1.0
  -0.166666666666667    0.166666666666666   -0.166666666666667   1.0
  -0.166666666666667    0.333333333333333    0.000000000000000   1.0
  -0.166666666666667    0.333333333333333    0.166666666666666   1.0
  -0.166666666666667    0.333333333333333    0.333333333333333   1.0
  -0.166666666666667    0.333333333333333   -0.500000000000000   1.0
  -0.166666666666667    0.333333333333333   -0.333333333333334   1.0
  -0.166666666666667    0.333333333333333   -0.166666666666667   1.0
  -0.166666666666667   -0.500000000000000    0.000000000000000   1.0
  -0.166666666666667   -0.500000000000000    0.166666666666666   1.0
  -0.166666666666667   -0.500000000000000    0.333333333333333   1.0
  -0.166666666666667   -0.500000000000000   -0.500000000000000   1.0
  -0.166666666666667   -0.500000000000000   -0.333333333333334   1.0
  -0.166666666666667   -0.500000000000000   -0.166666666666667   1.0
  -0.166666666666667   -0.333333333333334    0.000000000000000   1.0
  -0.166666666666667   -0.333333333333334    0.166666666666666   1.0
  -0.166666666666667   -0.333333333333334    0.333333333333333   1.0
  -0.166666666666667   -0.333333333333334   -0.500000000000000   1.0
  -0.166666666666667   -0.333333333333334   -0.333333333333334   1.0
  -0.166666666666667   -0.333333333333334   -0.166666666666667   1.0
  -0.166666666666667   -0.166666666666667    0.000000000000000   1.0
  -0.166666666666667   -0.166666666666667    0.166666666666666   1.0
  -0.166666666666667   -0.166666666666667    0.333333333333333   1.0
  -0.166666666666667   -0.166666666666667   -0.500000000000000   1.0
  -0.166666666666667   -0.166666666666667   -0.333333333333334   1.0
  -0.166666666666667   -0.166666666666667   -0.166666666666667   1.0
   0.083333333333333    0.083333333333333    0.083333333333333   1.0
   0.083333333333333    0.083333333333333    0.250000000000000   1.0
   0.083333333333333    0.083333333333333    0.416666666666666   1.0
   0.083333333333333    0.083333333333333   -0.416666666666667   1.0
   0.083333333333333    0.083333333333333   -0.250000000000000   1.0
   0.083333333333333    0.083333333333333   -0.083333333333334   1.0
   0.083333333333333    0.250000000000000    0.083333333333333   1.0
   0.083333333333333    0.250000000000000    0.250000000000000   1.0
   0.083333333333333    0.250000000000000    0.416666666666666   1.0
   0.083333333333333    0.250000000000000   -0.416666666666667   1.0
   0.083333333333333    0.250000000000000   -0.250000000000000   1.0
   0.083333333333333    0.250000000000000   -0.083333333333334   1.0
   0.083333333333333    0.416666666666666    0.083333333333333   1.0
   0.083333333333333    0.416666666666666    0.250000000000000   1.0
   0.083333333333333    0.416666666666666    0.416666666666666   1.0
   0.083333333333333    0.416666666666666   -0.416666666666667   1.0
   0.083333333333333    0.416666666666666   -0.250000000000000   1.0
   0.083333333333333    0.416666666666666   -0.083333333333334   1.0
   0.083333333333333   -0.416666666666667    0.083333333333333   1.0
   0.083333333333333   -0.416666666666667    0.250000000000000   1.0
   0.083333333333333   -0.416666666666667    0.416666666666666   1.0
   0.083333333333333   -0.416666666666667   -0.416666666666667   1.0
   0.083333333333333   -0.416666666666667   -0.250000000000000   1.0
   0.083333333333333   -0.416666666666667   -0.083333333333334   1.0
   0.083333333333333   -0.250000000000000    0.083333333333333   1.0
   0.083333333333333   -0.250000000000000    0.250000000000000   1.0
   0.083333333333333   -0.250000000000000    0.416666666666666   1.0
   0.083333333333333   -0.250000000000000   -0.416666666666667   1.0
   0.083333333333333   -0.250000000000000   -0.250000000000000   1.0
   0.083333333333333   -0.250000000000000   -0.083333333333334   1.0
   0.083333333333333   -0.083333333333334    0.083333333333333   1.0
   0.083333333333333   -0.083333333333334    0.250000000000000   1.0
   0.083333333333333   -0.083333333333334    0.416666666666666   1.0
   0.083333333333333   -0.083333333333334   -0.416666666666667   1.0
   0.083333333333333   -0.083333333333334   -0.250000000000000   1.0
   0.083333333333333   -0.083333333333334   -0.083333333333334   1.0
   0.250000000000000    0.083333333333333    0.083333333333333   1.0
   0.250000000000000    0.083333333333333    0.250000000000000   1.0
   0.250000000000000    0.083333333333333    0.416666666666666   1.0
   0.250000000000000    0.083333333333333   -0.416666666666667   1.0
   0.250000000000000    0.083333333333333   -0.250000000000000   1.0
   0.250000000000000    0.083333333333333   -0.083333333333334   1.0
   0.250000000000000    0.250000000000000    0.083333333333333   1.0
   0.250000000000000    0.250000000000000    0.250000000000000   1.0
   0.250000000000000    0.250000000000000    0.416666666666666   1.0
   0.250000000000000    0.250000000000000   -0.416666666666667   1.0
   0.250000000000000    0.250000000000000   -0.250000000000000   1.0
   0.250000000000000    0.250000000000000   -0.083333333333334   1.0
   0.250000000000000    0.416666666666666    0.083333333333333   1.0
   0.250000000000000    0.416666666666666    0.250000000000000   1.0
   0.250000000000000    0.416666666666666    0.416666666666666   1.0
   0.250000000000000    0.416666666666666   -0.416666666666667   1.0
   0.250000000000000    0.416666666666666   -0.250000000000000   1.0
   0.250000000000000    0.416666666666666   -0.083333333333334   1.0
   0.250000000000000   -0.416666666666667    0.083333333333333   1.0
   0.250000000000000   -0.416666666666667    0.250000000000000   1.0
   0.250000000000000   -0.416666666666667    0.416666666666666   1.0
   0.250000000000000   -0.416666666666667   -0.416666666666667   1.0
   0.250000000000000   -0.416666666666667   -0.250000000000000   1.0
   0.250000000000000   -0.416666666666667   -0.083333333333334   1.0
   0.250000000000000   -0.250000000000000    0.083333333333333   1.0
   0.250000000000000   -0.250000000000000    0.250000000000000   1.0
   0.250000000000000   -0.250000000000000    0.416666666666666   1.0
   0.250000000000000   -0.250000000000000   -0.416666666666667   1.0
   0.250000000000000   -0.250000000000000   -0.250000000000000   1.0
   0.250000000000000   -0.250000000000000   -0.083333333333334   1.0
   0.250000000000000   -0.083333333333334    0.083333333333333   1.0
   0.250000000000000   -0.083333333333334    0.250000000000000   1.0
   0.250000000000000   -0.083333333333334    0.416666666666666   1.0
   0.250000000000000   -0.083333333333334   -0.416666666666667   1.0
   0.250000000000000   -0.083333333333334   -0.250000000000000   1.0
   0.250000000000000   -0.083333333333334   -0.083333333333334   1.0
   0.416666666666666    0.083333333333333    0.083333333333333   1.0
   0.416666666666666    0.083333333333333    0.250000000000000   1.0
   0.416666666666666    0.083333333333333    0.416666666666666   1.0
   0.416666666666666    0.083333333333333   -0.416666666666667   1.0
   0.416666666666666    0.083333333333333   -0.250000000000000   1.0
   0.416666666666666    0.083333333333333   -0.083333333333334   1.0
   0.416666666666666    0.250000000000000    0.083333333333333   1.0
   0.416666666666666    0.250000000000000    0.250000000000000   1.0
   0.416666666666666    0.250000000000000    0.416666666666666   1.0
   0.416666666666666    0.250000000000000   -0.416666666666667   1.0
   0.416666666666666    0.250000000000000   -0.250000000000000   1.0
   0.416666666666666    0.250000000000000   -0.083333333333334   1.0
   0.416666666666666    0.416666666666666    0.083333333333333   1.0
   0.416666666666666    0.416666666666666    0.250000000000000   1.0
   0.416666666666666    0.416666666666666    0.416666666666666   1.0
   0.416666666666666    0.416666666666666   -0.416666666666667   1.0
   0.416666666666666    0.416666666666666   -0.250000000000000   1.0
   0.416666666666666    0.416666666666666   -0.083333333333334   1.0
   0.416666666666666   -0.416666666666667    0.083333333333333   1.0
   0.416666666666666   -0.416666666666667    0.250000000000000   1.0
   0.416666666666666   -0.416666666666667    0.416666666666666   1.0
   0.416666666666666   -0.416666666666667   -0.416666666666667   1.0
   0.416666666666666   -0.416666666666667   -0.250000000000000   1.0
   0.416666666666666   -0.416666666666667   -0.083333333333334   1.0
   0.416666666666666   -0.250000000000000    0.083333333333333   1.0
   0.416666666666666   -0.250000000000000    0.250000000000000   1.0
   0.416666666666666   -0.250000000000000    0.416666666666666   1.0
   0.416666666666666   -0.250000000000000   -0.416666666666667   1.0
   0.416666666666666   -0.250000000000000   -0.250000000000000   1.0
   0.416666666666666   -0.250000000000000   -0.083333333333334   1.0
   0.416666666666666   -0.083333333333334    0.083333333333333   1.0
   0.416666666666666   -0.083333333333334    0.250000000000000   1.0
   0.416666666666666   -0.083333333333334    0.416666666666666   1.0
   0.416666666666666   -0.083333333333334   -0.416666666666667   1.0
   0.416666666666666   -0.083333333333334   -0.250000000000000   1.0
   0.416666666666666   -0.083333333333334   -0.083333333333334   1.0
  -0.416666666666667    0.083333333333333    0.083333333333333   1.0
  -0.416666666666667    0.083333333333333    0.250000000000000   1.0
  -0.416666666666667    0.083333333333333    0.416666666666666   1.0
  -0.416666666666667    0.083333333333333   -0.416666666666667   1.0
  -0.416666666666667    0.083333333333333   -0.250000000000000   1.0
  -0.416666666666667    0.083333333333333   -0.083333333333334   1.0
  -0.416666666666667    0.250000000000000    0.083333333333333   1.0
  -0.416666666666667    0.250000000000000    0.250000000000000   1.0
  -0.416666666666667    0.250000000000000    0.416666666666666   1.0
  -0.416666666666667    0.250000000000000   -0.416666666666667   1.0
  -0.416666666666667    0.250000000000000   -0.250000000000000   1.0
  -0.416666666666667    0.250000000000000   -0.083333333333334   1.0
  -0.416666666666667    0.416666666666666    0.083333333333333   1.0
  -0.416666666666667    0.416666666666666    0.250000000000000   1.0
  -0.416666666666667    0.416666666666666    0.416666666666666   1.0
  -0.416666666666667    0.416666666666666   -0.416666666666667   1.0
  -0.416666666666667    0.416666666666666   -0.250000000000000   1.0
  -0.416666666666667    0.416666666666666   -0.083333333333334   1.0
  -0.416666666666667   -0.416666666666667    0.083333333333333   1.0
  -0.416666666666667   -0.416666666666667    0.250000000000000   1.0
  -0.416666666666667   -0.416666666666667    0.416666666666666   1.0
  -0.416666666666667   -0.416666666666667   -0.416666666666667   1.0
  -0.416666666666667   -0.416666666666667   -0.250000000000000   1.0
  -0.416666666666667   -0.416666666666667   -0.083333333333334   1.0
  -0.416666666666667   -0.250000000000000    0.083333333333333   1.0
  -0.416666666666667   -0.250000000000000    0.250000000000000   1.0
  -0.416666666666667   -0.250000000000000    0.416666666666666   1.0
  -0.416666666666667   -0.250000000000000   -0.416666666666667   1.0
  -0.416666666666667   -0.250000000000000   -0.250000000000000   1.0
  -0.416666666666667   -0.250000000000000   -0.083333333333334   1.0
  -0.416666666666667   -0.083333333333334    0.083333333333333   1.0
  -0.416666666666667   -0.083333333333334    0.250000000000000   1.0
  -0.416666666666667   -0.083333333333334    0.416666666666666   1.0
  -0.416666666666667   -0.083333333333334   -0.416666666666667   1.0
  -0.416666666666667   -0.083333333333334   -0.250000000000000   1.0
  -0.416666666666667   -0.083333333333334   -0.083333333333334   1.0
  -0.250000000000000    0.083333333333333    0.083333333333333   1.0
  -0.250000000000000    0.083333333333333    0.250000000000000   1.0
  -0.250000000000000    0.083333333333333    0.416666666666666   1.0
  -0.250000000000000    0.083333333333333   -0.416666666666667   1.0
  -0.250000000000000    0.083333333333333   -0.250000000000000   1.0
  -0.250000000000000    0.083333333333333   -0.083333333333334   1.0
  -0.250000000000000    0.250000000000000    0.083333333333333   1.0
  -0.250000000000000    0.250000000000000    0.250000000000000   1.0
  -0.250000000000000    0.250000000000000    0.416666666666666   1.0
  -0.250000000000000    0.250000000000000   -0.416666666666667   1.0
  -0.250000000000000    0.250000000000000   -0.250000000000000   1.0
  -0.250000000000000    0.250000000000000   -0.083333333333334   1.0
  -0.250000000000000    0.416666666666666    0.083333333333333   1.0
  -0.250000000000000    0.416666666666666    0.250000000000000   1.0
  -0.250000000000000    0.416666666666666    0.416666666666666   1.0
  -0.250000000000000    0.416666666666666   -0.416666666666667   1.0
  -0.250000000000000    0.416666666666666   -0.250000000000000   1.0
  -0.250000000000000    0.416666666666666   -0.083333333333334   1.0
  -0.250000000000000   -0.416666666666667    0.083333333333333   1.0
  -0.250000000000000   -0.416666666666667    0.250000000000000   1.0
  -0.250000000000000   -0.416666666666667    0.416666666666666   1.0
  -0.250000000000000   -0.416666666666667   -0.416666666666667   1.0
  -0.250000000000000   -0.416666666666667   -0.250000000000000   1.0
  -0.250000000000000   -0.416666666666667   -0.083333333333334   1.0
  -0.250000000000000   -0.250000000000000    0.083333333333333   1.0
  -0.250000000000000   -0.250000000000000    0.250000000000000   1.0
  -0.250000000000000   -0.250000000000000    0.416666666666666   1.0
  -0.250000000000000   -0.250000000000000   -0.416666666666667   1.0
  -0.250000000000000   -0.250000000000000   -0.250000000000000   1.0
  -0.250000000000000   -0.250000000000000   -0.083333333333334   1.0
  -0.250000000000000   -0.083333333333334    0.083333333333333   1.0
  -0.250000000000000   -0.083333333333334    0.250000000000000   1.0
  -0.250000000000000   -0.083333333333334    0.416666666666666   1.0
  -0.250000000000000   -0.083333333333334   -0.416666666666667   1.0
  -0.250000000000000   -0.083333333333334   -0.250000000000000   1.0
  -0.250000000000000   -0.083333333333334   -0.083333333333334   1.0
  -0.083333333333334    0.083333333333333    0.083333333333333   1.0
  -0.083333333333334    0.083333333333333    0.250000000000000   1.0
  -0.083333333333334    0.083333333333333    0.416666666666666   1.0
  -0.083333333333334    0.083333333333333   -0.416666666666667   1.0
  -0.083333333333334    0.083333333333333   -0.250000000000000   1.0
  -0.083333333333334    0.083333333333333   -0.083333333333334   1.0
  -0.083333333333334    0.250000000000000    0.083333333333333   1.0
  -0.083333333333334    0.250000000000000    0.250000000000000   1.0
  -0.083333333333334    0.250000000000000    0.416666666666666   1.0
  -0.083333333333334    0.250000000000000   -0.416666666666667   1.0
  -0.083333333333334    0.250000000000000   -0.250000000000000   1.0
  -0.083333333333334    0.250000000000000   -0.083333333333334   1.0
  -0.083333333333334    0.416666666666666    0.083333333333333   1.0
  -0.083333333333334    0.416666666666666    0.250000000000000   1.0
  -0.083333333333334    0.416666666666666    0.416666666666666   1.0
  -0.083333333333334    0.416666666666666   -0.416666666666667   1.0
  -0.083333333333334    0.416666666666666   -0.250000000000000   1.0
  -0.083333333333334    0.416666666666666   -0.083333333333334   1.0
  -0.083333333333334   -0.416666666666667    0.083333333333333   1.0
  -0.083333333333334   -0.416666666666667    0.250000000000000   1.0
  -0.083333333333334   -0.416666666666667    0.416666666666666   1.0
  -0.083333333333334   -0.416666666666667   -0.416666666666667   1.0
  -0.083333333333334   -0.416666666666667   -0.250000000000000   1.0
  -0.083333333333334   -0.416666666666667   -0.083333333333334   1.0
  -0.083333333333334   -0.250000000000000    0.083333333333333   1.0
  -0.083333333333334   -0.250000000000000    0.250000000000000   1.0
  -0.083333333333334   -0.250000000000000    0.416666666666666   1.0
  -0.083333333333334   -0.250000000000000   -0.416666666666667   1.0
  -0.083333333333334   -0.250000000000000   -0.250000000000000   1.0
  -0.083333333333334   -0.250000000000000   -0.083333333333334   1.0
  -0.083333333333334   -0.083333333333334    0.083333333333333   1.0
  -0.083333333333334   -0.083333333333334    0.250000000000000   1.0
  -0.083333333333334   -0.083333333333334    0.416666666666666   1.0