&INPUT
 fildyn = 'matdyn'
   la2f = .true.
 lshift_q = .true.
   zasr = 'crystal'
  flfrc = 'ifc.dat'
/